num_offers = 40;
num_halls = 10;
start=[29,3,7,15,62,6,7,15,55,1,82,30,14,42,63,78,7,84,94,75,41,49,15,22,44,33,45,61,30,91,6,17,1,84,43,65,11,61,14,11];
end=[68,26,12,49,96,45,66,89,58,96,93,67,37,44,97,92,58,90,95,83,81,90,32,28,88,70,47,88,96,97,99,49,61,94,82,78,95,77,96,43];
price=[1377,893,156,891,922,2112,3143,3642,182,4177,374,843,1337,122,3334,803,4830,484,50,473,2541,667,911,692,3525,3357,255,1555,751,357,4677,3027,3882,723,1566,380,878,1256,7257,2210];
requirement=[679,716,984,654,747,939,701,304,734,289,519,670,865,797,636,404,470,899,709,876,667,580,236,859,349,231,363,538,548,710,733,349,520,658,642,419,813,705,551,469];
capacity=[370,960,693,657,923,709,234,316,549,826];
